100
34 0
24 0
8 1
1 3
9 1
34 4
8 3
11 4
5 2
37 0
34 3
27 3
12 2
7 3
18 4
8 0
22 4
36 4
41 4
41 3
17 0
11 0
28 3
12 4
19 2
43 3
21 2
19 3
18 0
4 2
2 0
33 0
30 4
8 2
22 0
8 4
21 4
11 3
39 1
32 4
6 2
25 0
6 0
37 4
36 0
44 0
1 4
10 4
6 4
36 1
44 1
0 0
23 0
29 4
14 4
36 3
9 4
32 0
2 2
7 2
10 3
23 3
13 4
15 3
11 1
35 0
7 4
37 3
16 3
28 2
9 0
19 4
5 0
15 0
26 0
29 0
33 4
16 0
13 1
39 3
29 1
19 1
30 0
3 0
13 0
14 1
24 2
16 4
27 0
42 4
2 4
19 0
24 4
41 0
38 4
2 3
1 1
38 0
29 3
24 1

